09-routing/solutions/XSH-n20-k4-29.opt.sol
Route #1: 4 7 17 2 20 18
Route #2: 1 3 19 15 8 12
Route #3: 11 16 6 9
Route #4: 14 13 5 10
Cost 658
